; benchmark generated from python API
(set-info :status unknown)
(declare-fun R_E1_V6 () Bool)
(declare-fun W_S2_V6 () Bool)
(declare-fun W_S1_V6 () Bool)
(declare-fun R_E1_V4 () Bool)
(declare-fun W_S2_V4 () Bool)
(declare-fun W_S1_V5 () Bool)
(declare-fun W_S1_V3 () Bool)
(declare-fun R_S1_V6 () Bool)
(declare-fun R_S1_V4 () Bool)
(declare-fun R_S1_V5 () Bool)
(declare-fun R_S1_V2 () Bool)
(declare-fun R_S1_V3 () Bool)
(declare-fun R_S1_V1 () Bool)
(declare-fun R_S2_V6 () Bool)
(declare-fun R_S2_V4 () Bool)
(declare-fun R_S2_V5 () Bool)
(declare-fun R_S2_V2 () Bool)
(declare-fun R_S2_V1 () Bool)
(declare-fun R_E1_V2 () Bool)
(declare-fun R_E1_V3 () Bool)
(declare-fun R_E1_V5 () Bool)
(declare-fun DISJ_W_S2_R_S2 () Bool)
(declare-fun DISJ_W_S2_R_S1 () Bool)
(declare-fun DISJ_W_S1_W_S2 () Bool)
(declare-fun DISJ_W_S1_R_S2 () Bool)
(declare-fun DISJ_W_S1_R_S1 () Bool)
(declare-fun W_S2_V5 () Bool)
(declare-fun W_S1_V4 () Bool)
(declare-fun W_S2_V2 () Bool)
(declare-fun W_S2_V3 () Bool)
(declare-fun W_S2_V1 () Bool)
(declare-fun W_S1_V2 () Bool)
(declare-fun W_S1_V1 () Bool)
(declare-fun R_E1_V1 () Bool)
(declare-fun R_S2_V3 () Bool)
(declare-fun DISJ_W_S2_R_E1 () Bool)
(declare-fun DISJ_W_S1_R_E1 () Bool)
(assert
 (let (($x1411 (not (and W_S2_V6 R_E1_V6))))
 (let (($x342 (not (and W_S1_V6 R_E1_V6))))
 (let (($x4604 (not R_E1_V4)))
 (let (($x2691 (forall ((V3_0 Int) )(forall ((V2_0 Int) )(forall ((V5_0 Int) )(forall ((V4_0 Int) )(forall ((V6_0 Int) )(forall ((MW_S1_V1 Bool) )(forall ((MW_S1_V3 Bool) )(forall ((MW_S1_V2 Bool) )(forall ((MW_S1_V5 Bool) )(forall ((MW_S1_V4 Bool) )(forall ((MW_S1_V6 Bool) )(forall ((MW_S2_V1 Bool) )(forall ((MW_S2_V3 Bool) )(forall ((MW_S2_V2 Bool) )(forall ((MW_S2_V5 Bool) )(forall ((MW_S2_V4 Bool) )(forall ((MW_S2_V6 Bool) )(forall ((S1_V1_!1421 Int) )(forall ((S1_V1_!1433 Int) )(forall ((S1_V1_!1446 Int) )(forall ((S1_V1_!1458 Int) )(forall ((S2_V5_!1430 Int) )(forall ((S2_V5_!1442 Int) )(forall ((S2_V5_!1455 Int) )(forall ((S2_V5_!1467 Int) )(forall ((S1_V3_!1422 Int) )(forall ((S1_V3_!1434 Int) )(forall ((S1_V3_!1447 Int) )(forall ((S1_V3_!1459 Int) )(forall ((S1_V2_!1423 Int) )(forall ((S1_V2_!1435 Int) )(forall ((S1_V2_!1448 Int) )(forall ((S1_V2_!1460 Int) )(forall ((E1_!1420 Int) )(forall ((E1_!1445 Int) )(forall ((E1_!1470 Int) )(forall ((S2_V4_!1431 Int) )(forall ((S2_V4_!1443 Int) )(forall ((S2_V4_!1456 Int) )(forall ((S2_V4_!1468 Int) )(forall ((S2_V6_!1432 Int) )(forall ((S2_V6_!1444 Int) )(forall ((S2_V6_!1457 Int) )(forall ((S2_V6_!1469 Int) )(forall ((S1_V5_!1424 Int) )(forall ((S1_V5_!1436 Int) )(forall ((S1_V5_!1449 Int) )(forall ((S1_V5_!1461 Int) )(forall ((S2_V1_!1427 Int) )(forall ((S2_V1_!1439 Int) )(forall ((S2_V1_!1452 Int) )(forall ((S2_V1_!1464 Int) )(forall ((S1_V4_!1425 Int) )(forall ((S1_V4_!1437 Int) )(forall ((S1_V4_!1450 Int) )(forall ((S1_V4_!1462 Int) )(forall ((S2_V3_!1428 Int) )(forall ((S2_V3_!1440 Int) )(forall ((S2_V3_!1453 Int) )(forall ((S2_V3_!1465 Int) )(forall ((S2_V2_!1429 Int) )(forall ((S2_V2_!1441 Int) )(forall ((S2_V2_!1454 Int) )(forall ((S2_V2_!1466 Int) )(forall ((S1_V6_!1426 Int) )(forall ((S1_V6_!1438 Int) )(forall ((S1_V6_!1451 Int) )(forall ((S1_V6_!1463 Int) )(let ((?x2255 (ite MW_S1_V6 S1_V6_!1451 V6_0)))
 (let ((?x1366 (ite MW_S2_V6 S2_V6_!1457 ?x2255)))
 (let ((?x1397 (ite MW_S1_V6 S1_V6_!1463 ?x1366)))
 (let ((?x3167 (ite MW_S2_V6 S2_V6_!1469 ?x1397)))
 (let (($x639 (= (ite MW_S2_V6 S2_V6_!1444 (ite MW_S1_V6 S1_V6_!1438 (ite MW_S2_V6 S2_V6_!1432 (ite MW_S1_V6 S1_V6_!1426 V6_0)))) ?x3167)))
 (let (($x3047 (= (ite MW_S2_V4 S2_V4_!1443 (ite MW_S1_V4 S1_V4_!1437 (ite MW_S2_V4 S2_V4_!1431 (ite MW_S1_V4 S1_V4_!1425 V4_0)))) (ite MW_S2_V4 S2_V4_!1468 (ite MW_S1_V4 S1_V4_!1462 (ite MW_S2_V4 S2_V4_!1456 (ite MW_S1_V4 S1_V4_!1450 V4_0)))))))
 (let (($x3143 (= (ite MW_S2_V5 S2_V5_!1442 (ite MW_S1_V5 S1_V5_!1436 (ite MW_S2_V5 S2_V5_!1430 (ite MW_S1_V5 S1_V5_!1424 V5_0)))) (ite MW_S2_V5 S2_V5_!1467 (ite MW_S1_V5 S1_V5_!1461 (ite MW_S2_V5 S2_V5_!1455 (ite MW_S1_V5 S1_V5_!1449 V5_0)))))))
 (let ((?x3626 (ite MW_S1_V2 S1_V2_!1448 V2_0)))
 (let ((?x3255 (ite MW_S2_V2 S2_V2_!1454 ?x3626)))
 (let ((?x2922 (ite MW_S1_V2 S1_V2_!1460 ?x3255)))
 (let ((?x3858 (ite MW_S2_V2 S2_V2_!1466 ?x2922)))
 (let ((?x4654 (ite MW_S1_V2 S1_V2_!1423 V2_0)))
 (let ((?x6052 (ite MW_S2_V2 S2_V2_!1429 ?x4654)))
 (let ((?x141 (ite MW_S1_V2 S1_V2_!1435 ?x6052)))
 (let ((?x4594 (ite MW_S2_V2 S2_V2_!1441 ?x141)))
 (let ((?x30 (ite MW_S2_V3 S2_V3_!1465 (ite MW_S1_V3 S1_V3_!1459 (ite MW_S2_V3 S2_V3_!1453 (ite MW_S1_V3 S1_V3_!1447 V3_0))))))
 (let ((?x2814 (+ 1 (ite MW_S1_V3 S1_V3_!1434 (ite MW_S2_V3 S2_V3_!1428 (+ 1 (ite MW_S1_V3 S1_V3_!1422 V3_0)))))))
 (let ((?x1284 (ite MW_S1_V1 S1_V1_!1446 E1_!1445)))
 (let ((?x873 (ite MW_S2_V1 S2_V1_!1452 ?x1284)))
 (let ((?x5281 (+ 1 ?x873)))
 (let ((?x4758 (ite MW_S1_V1 S1_V1_!1458 ?x5281)))
 (let ((?x4705 (ite MW_S2_V1 S2_V1_!1464 ?x4758)))
 (let ((?x3557 (ite MW_S1_V1 S1_V1_!1421 E1_!1420)))
 (let ((?x3620 (ite MW_S2_V1 S2_V1_!1427 ?x3557)))
 (let ((?x487 (+ 1 ?x3620)))
 (let ((?x791 (ite MW_S1_V1 S1_V1_!1433 ?x487)))
 (let ((?x1030 (ite MW_S2_V1 S2_V1_!1439 ?x791)))
 (let (($x2500 (and (= ?x1030 ?x4705) (= (ite MW_S2_V3 S2_V3_!1440 ?x2814) (+ ?x30 ?x3858 (* (- 1) E1_!1470))) (= ?x4594 ?x3858) $x3143 $x3047 $x639)))
 (let (($x2627 (and (not (<= V2_0 E1_!1420)) (not (<= ?x6052 ?x487)) (>= ?x1030 (+ (- 1) ?x4594)) (not (<= V2_0 E1_!1445)) (not (<= ?x3255 ?x5281)) (>= ?x4705 (+ (- 1) ?x3858)))))
 (let (($x3715 (= S1_V6_!1463 S1_V6_!1438)))
 (let ((?x2716 (ite MW_S1_V4 S1_V4_!1425 V4_0)))
 (let ((?x2364 (ite MW_S2_V4 S2_V4_!1431 ?x2716)))
 (let ((?x2208 (ite MW_S1_V4 S1_V4_!1450 V4_0)))
 (let ((?x4804 (ite MW_S2_V4 S2_V4_!1456 ?x2208)))
 (let (($x909 (not R_S1_V4)))
 (let ((?x5834 (ite MW_S1_V5 S1_V5_!1424 V5_0)))
 (let ((?x1205 (ite MW_S2_V5 S2_V5_!1430 ?x5834)))
 (let ((?x91 (ite MW_S1_V5 S1_V5_!1449 V5_0)))
 (let ((?x3162 (ite MW_S2_V5 S2_V5_!1455 ?x91)))
 (let (($x3413 (not R_S1_V5)))
 (let ((?x1694 (ite MW_S2_V3 S2_V3_!1428 (+ 1 (ite MW_S1_V3 S1_V3_!1422 V3_0)))))
 (let ((?x2591 (ite MW_S2_V3 S2_V3_!1453 (ite MW_S1_V3 S1_V3_!1447 V3_0))))
 (let (($x4909 (not R_S1_V3)))
 (let (($x4906 (and (or (not R_S1_V1) (= ?x873 ?x3620)) (or $x4909 (= ?x2591 ?x1694)) (or (not R_S1_V2) (= ?x3255 ?x6052)) (or $x3413 (= ?x3162 ?x1205)) (or $x909 (= ?x4804 ?x2364)) (or (not R_S1_V6) (= ?x1366 (ite MW_S2_V6 S2_V6_!1432 (ite MW_S1_V6 S1_V6_!1426 V6_0)))))))
 (let (($x3042 (not $x4906)))
 (let (($x5705 (not R_S1_V6)))
 (let (($x2009 (or $x5705 (= ?x1366 V6_0))))
 (let (($x2856 (or $x909 (= ?x4804 V4_0))))
 (let (($x6067 (or $x3413 (= ?x3162 V5_0))))
 (let (($x2543 (not R_S1_V2)))
 (let (($x860 (or $x2543 (= ?x3255 V2_0))))
 (let (($x6025 (or $x4909 (= ?x2591 V3_0))))
 (let (($x243 (and (or (not R_S1_V1) (= ?x873 (+ (- 1) E1_!1420))) $x6025 $x860 $x6067 $x2856 $x2009)))
 (let (($x1548 (not $x243)))
 (let (($x2218 (or $x5705 (= V6_0 ?x1366))))
 (let (($x3184 (or $x909 (= V4_0 ?x4804))))
 (let (($x1197 (or $x3413 (= V5_0 ?x3162))))
 (let (($x266 (or $x2543 (= V2_0 ?x3255))))
 (let (($x1267 (or $x4909 (= V3_0 ?x2591))))
 (let (($x1552 (not (and (or (not R_S1_V1) (= E1_!1445 ?x5281)) $x1267 $x266 $x1197 $x3184 $x2218))))
 (let (($x5056 (= S1_V6_!1451 S1_V6_!1438)))
 (let (($x2893 (and (or (not R_S1_V1) (= E1_!1445 ?x487)) (or $x4909 (= V3_0 ?x1694)) (or $x2543 (= V2_0 ?x6052)) (or $x3413 (= V5_0 ?x1205)) (or $x909 (= V4_0 ?x2364)) (or $x5705 (= V6_0 (ite MW_S2_V6 S2_V6_!1432 (ite MW_S1_V6 S1_V6_!1426 V6_0)))))))
 (let (($x2616 (or $x5705 (= (ite MW_S2_V6 S2_V6_!1432 (ite MW_S1_V6 S1_V6_!1426 V6_0)) V6_0))))
 (let (($x2780 (or $x909 (= ?x2364 V4_0))))
 (let (($x4221 (or $x3413 (= ?x1205 V5_0))))
 (let (($x3501 (or $x2543 (= ?x6052 V2_0))))
 (let (($x2975 (or $x4909 (= ?x1694 V3_0))))
 (let (($x1882 (and (or (not R_S1_V1) (= ?x3620 (+ (- 1) E1_!1420))) $x2975 $x3501 $x4221 $x2780 $x2616)))
 (let (($x1158 (not $x1882)))
 (let (($x2354 (= S2_V2_!1454 S2_V2_!1466)))
 (let (($x3368 (and (or (not R_S2_V1) (= ?x1284 ?x4758)) (or (not R_S2_V2) (= ?x3626 ?x2922)) (or (not R_S2_V5) (= ?x91 (ite MW_S1_V5 S1_V5_!1461 ?x3162))) (or (not R_S2_V4) (= ?x2208 (ite MW_S1_V4 S1_V4_!1462 ?x4804))) (or (not R_S2_V6) (= ?x2255 ?x1397)))))
 (let (($x5240 (not $x3368)))
 (let (($x3283 (not R_S2_V6)))
 (let (($x5328 (or $x3283 (= ?x2255 (ite MW_S1_V6 S1_V6_!1438 (ite MW_S2_V6 S2_V6_!1432 (ite MW_S1_V6 S1_V6_!1426 V6_0)))))))
 (let (($x2753 (and (or (not R_S2_V1) (= ?x1284 ?x791)) (or (not R_S2_V2) (= ?x3626 ?x141)) (or (not R_S2_V5) (= ?x91 (ite MW_S1_V5 S1_V5_!1436 ?x1205))) (or (not R_S2_V4) (= ?x2208 (ite MW_S1_V4 S1_V4_!1437 ?x2364))) $x5328)))
 (let (($x1720 (not $x2753)))
 (let (($x2251 (and (or (not R_S2_V1) (= ?x1284 ?x3557)) (or (not R_S2_V2) (= ?x3626 ?x4654)) (or (not R_S2_V5) (= ?x91 ?x5834)) (or (not R_S2_V4) (= ?x2208 ?x2716)) (or $x3283 (= ?x2255 (ite MW_S1_V6 S1_V6_!1426 V6_0))))))
 (let (($x3592 (not $x2251)))
 (let (($x2756 (or $x3283 (= (ite MW_S1_V6 S1_V6_!1438 (ite MW_S2_V6 S2_V6_!1432 (ite MW_S1_V6 S1_V6_!1426 V6_0))) ?x1397))))
 (let (($x2950 (and (or (not R_S2_V1) (= ?x791 ?x4758)) (or (not R_S2_V2) (= ?x141 ?x2922)) (or (not R_S2_V5) (= (ite MW_S1_V5 S1_V5_!1436 ?x1205) (ite MW_S1_V5 S1_V5_!1461 ?x3162))) (or (not R_S2_V4) (= (ite MW_S1_V4 S1_V4_!1437 ?x2364) (ite MW_S1_V4 S1_V4_!1462 ?x4804))) $x2756)))
 (let (($x2176 (not $x2950)))
 (let ((?x5210 (ite MW_S1_V6 S1_V6_!1426 V6_0)))
 (let ((?x5105 (ite MW_S2_V6 S2_V6_!1432 ?x5210)))
 (let ((?x793 (ite MW_S1_V6 S1_V6_!1438 ?x5105)))
 (let (($x3536 (and (or (not R_S2_V1) (= ?x791 ?x3557)) (or (not R_S2_V2) (= ?x141 ?x4654)) (or (not R_S2_V5) (= (ite MW_S1_V5 S1_V5_!1436 ?x1205) ?x5834)) (or (not R_S2_V4) (= (ite MW_S1_V4 S1_V4_!1437 ?x2364) ?x2716)) (or $x3283 (= ?x793 ?x5210)))))
 (let (($x1065 (not $x3536)))
 (let (($x1733 (and (or (not R_S2_V1) (= ?x3557 ?x4758)) (or (not R_S2_V2) (= ?x4654 ?x2922)) (or (not R_S2_V5) (= ?x5834 (ite MW_S1_V5 S1_V5_!1461 ?x3162))) (or (not R_S2_V4) (= ?x2716 (ite MW_S1_V4 S1_V4_!1462 ?x4804))) (or $x3283 (= ?x5210 ?x1397)))))
 (let (($x2062 (not $x1733)))
 (let (($x191 (and (or (not R_S2_V1) (= ?x4758 ?x1284)) (or (not R_S2_V2) (= ?x2922 ?x3626)) (or (not R_S2_V5) (= (ite MW_S1_V5 S1_V5_!1461 ?x3162) ?x91)) (or (not R_S2_V4) (= (ite MW_S1_V4 S1_V4_!1462 ?x4804) ?x2208)) (or $x3283 (= ?x1397 ?x2255)))))
 (let (($x3739 (not $x191)))
 (let (($x5985 (and (or (not R_S2_V1) (= ?x4758 ?x3557)) (or (not R_S2_V2) (= ?x2922 ?x4654)) (or (not R_S2_V5) (= (ite MW_S1_V5 S1_V5_!1461 ?x3162) ?x5834)) (or (not R_S2_V4) (= (ite MW_S1_V4 S1_V4_!1462 ?x4804) ?x2716)) (or $x3283 (= ?x1397 ?x5210)))))
 (let (($x1951 (not $x5985)))
 (let (($x2973 (= S2_V3_!1440 S2_V3_!1453)))
 (let (($x3819 (and (or (not R_S2_V1) (= ?x791 ?x1284)) (or (not R_S2_V2) (= ?x141 ?x3626)) (or (not R_S2_V5) (= (ite MW_S1_V5 S1_V5_!1436 ?x1205) ?x91)) (or (not R_S2_V4) (= (ite MW_S1_V4 S1_V4_!1437 ?x2364) ?x2208)) (or $x3283 (= ?x793 ?x2255)))))
 (let (($x20 (not $x3819)))
 (let (($x2383 (and (or (not R_S1_V1) (= ?x3620 ?x873)) (or $x4909 (= ?x1694 ?x2591)) (or $x2543 (= ?x6052 ?x3255)) (or $x3413 (= ?x1205 ?x3162)) (or $x909 (= ?x2364 ?x4804)) (or $x5705 (= ?x5105 ?x1366)))))
 (let (($x3036 (not $x2383)))
 (let (($x2194 (and (or (not R_S1_V1) (= ?x3620 (+ (- 1) E1_!1445))) $x2975 $x3501 $x4221 $x2780 $x2616)))
 (let (($x2787 (not $x2194)))
 (let (($x5915 (not (and (or (not R_S1_V1) (= E1_!1420 ?x5281)) $x1267 $x266 $x1197 $x3184 $x2218))))
 (let (($x1081 (and (or (not R_S2_V1) (= ?x4758 ?x791)) (or (not R_S2_V2) (= ?x2922 ?x141)) (or (not R_S2_V5) (= (ite MW_S1_V5 S1_V5_!1461 ?x3162) (ite MW_S1_V5 S1_V5_!1436 ?x1205))) (or (not R_S2_V4) (= (ite MW_S1_V4 S1_V4_!1462 ?x4804) (ite MW_S1_V4 S1_V4_!1437 ?x2364))) (or $x3283 (= ?x1397 ?x793)))))
 (let (($x3000 (not $x1081)))
 (let (($x1603 (and (or (not R_S2_V1) (= ?x3557 ?x1284)) (or (not R_S2_V2) (= ?x4654 ?x3626)) (or (not R_S2_V5) (= ?x5834 ?x91)) (or (not R_S2_V4) (= ?x2716 ?x2208)) (or $x3283 (= ?x5210 ?x2255)))))
 (let (($x14 (and (or (not R_S2_V1) (= ?x3557 ?x791)) (or (not R_S2_V2) (= ?x4654 ?x141)) (or (not R_S2_V5) (= ?x5834 (ite MW_S1_V5 S1_V5_!1436 ?x1205))) (or (not R_S2_V4) (= ?x2716 (ite MW_S1_V4 S1_V4_!1437 ?x2364))) (or $x3283 (= ?x5210 ?x793)))))
 (let (($x190 (not $x14)))
 (let (($x1962 (and (or (not R_E1_V3) (= ?x30 V3_0)) (or (not R_E1_V2) (= ?x3858 V2_0)) (or (not R_E1_V6) (= ?x3167 V6_0)))))
 (let (($x1277 (not $x1962)))
 (let (($x1048 (= E1_!1445 E1_!1420)))
 (let (($x1171 (= S1_V2_!1460 S1_V2_!1448)))
 (let (($x3248 (and (or (not R_S1_V1) (= ?x873 (+ (- 1) E1_!1445))) $x6025 $x860 $x6067 $x2856 $x2009)))
 (let (($x2855 (not $x3248)))
 (let (($x4869 (and (or $x1158 (= S1_V1_!1433 S1_V1_!1421)) (or $x2787 (= S1_V1_!1433 S1_V1_!1446)) (or (not (or (not R_S1_V1) $x1048)) (= S1_V1_!1446 S1_V1_!1421)) (or $x1548 (= S1_V1_!1458 S1_V1_!1421)) (or $x3042 (= S1_V1_!1458 S1_V1_!1433)) (or $x2855 (= S1_V1_!1458 S1_V1_!1446)) (or $x1065 (= S2_V5_!1442 S2_V5_!1430)) (or $x20 (= S2_V5_!1442 S2_V5_!1455)) (or $x2176 (= S2_V5_!1442 S2_V5_!1467)) (or $x3592 (= S2_V5_!1455 S2_V5_!1430)) (or $x1951 (= S2_V5_!1467 S2_V5_!1430)) (or $x3739 (= S2_V5_!1467 S2_V5_!1455)) (or $x1158 (= S1_V3_!1434 S1_V3_!1422)) (or $x2787 (= S1_V3_!1434 S1_V3_!1447)) (or $x3036 (= S1_V3_!1434 S1_V3_!1459)) (or (not (or (not R_S1_V1) $x1048)) (= S1_V3_!1447 S1_V3_!1422)) (or $x1552 (= S1_V3_!1447 S1_V3_!1459)) (or $x1548 (= S1_V3_!1459 S1_V3_!1422)) (or $x1158 (= S1_V2_!1435 S1_V2_!1423)) (or $x2787 (= S1_V2_!1435 S1_V2_!1448)) (or (not (or (not R_S1_V1) $x1048)) (= S1_V2_!1448 S1_V2_!1423)) (or $x1548 (= S1_V2_!1460 S1_V2_!1423)) (or $x3042 (= S1_V2_!1460 S1_V2_!1435)) (or $x2855 $x1171) $x1048 (or $x1277 (= E1_!1470 E1_!1420)) (or $x1277 (= E1_!1470 E1_!1445)) (or $x1065 (= S2_V4_!1443 S2_V4_!1431)) (or $x20 (= S2_V4_!1443 S2_V4_!1456)) (or $x2176 (= S2_V4_!1443 S2_V4_!1468)) (or $x3592 (= S2_V4_!1456 S2_V4_!1431)) (or $x5240 (= S2_V4_!1456 S2_V4_!1468)) (or $x1951 (= S2_V4_!1468 S2_V4_!1431)) (or $x190 (= S2_V6_!1432 S2_V6_!1444)) (or $x2062 (= S2_V6_!1432 S2_V6_!1469)) (or $x3592 (= S2_V6_!1457 S2_V6_!1432)) (or $x1720 (= S2_V6_!1457 S2_V6_!1444)) (or $x5240 (= S2_V6_!1457 S2_V6_!1469)) (or $x3000 (= S2_V6_!1469 S2_V6_!1444)) (or $x1158 (= S1_V5_!1436 S1_V5_!1424)) (or $x2787 (= S1_V5_!1436 S1_V5_!1449)) (or $x3036 (= S1_V5_!1436 S1_V5_!1461)) (or (not (or (not R_S1_V1) $x1048)) (= S1_V5_!1449 S1_V5_!1424)) (or $x1552 (= S1_V5_!1449 S1_V5_!1461)) (or $x1548 (= S1_V5_!1461 S1_V5_!1424)) (or $x190 (= S2_V1_!1427 S2_V1_!1439)) (or (not $x1603) (= S2_V1_!1427 S2_V1_!1452)) (or $x1720 (= S2_V1_!1452 S2_V1_!1439)) (or $x1951 (= S2_V1_!1464 S2_V1_!1427)) (or $x3000 (= S2_V1_!1464 S2_V1_!1439)) (or $x3739 (= S2_V1_!1464 S2_V1_!1452)) (or $x5915 (= S1_V4_!1425 S1_V4_!1462)) (or $x1158 (= S1_V4_!1437 S1_V4_!1425)) (or $x2787 (= S1_V4_!1437 S1_V4_!1450)) (or $x3036 (= S1_V4_!1437 S1_V4_!1462)) (or (not (or (not R_S1_V1) $x1048)) (= S1_V4_!1450 S1_V4_!1425)) (or $x1552 (= S1_V4_!1450 S1_V4_!1462)) (or $x1065 (= S2_V3_!1440 S2_V3_!1428)) (or $x20 $x2973) (or $x2176 (= S2_V3_!1440 S2_V3_!1465)) (or $x3592 (= S2_V3_!1453 S2_V3_!1428)) (or $x1951 (= S2_V3_!1465 S2_V3_!1428)) (or $x3739 (= S2_V3_!1465 S2_V3_!1453)) (or $x2062 (= S2_V2_!1429 S2_V2_!1466)) (or $x1065 (= S2_V2_!1441 S2_V2_!1429)) (or $x2176 (= S2_V2_!1441 S2_V2_!1466)) (or $x3592 (= S2_V2_!1454 S2_V2_!1429)) (or $x1720 (= S2_V2_!1454 S2_V2_!1441)) (or $x5240 $x2354) (or $x1158 (= S1_V6_!1438 S1_V6_!1426)) (or (not (or (not R_S1_V1) $x1048)) (= S1_V6_!1451 S1_V6_!1426)) (or (not $x2893) $x5056) (or $x1552 (= S1_V6_!1451 S1_V6_!1463)) (or $x1548 (= S1_V6_!1463 S1_V6_!1426)) (or $x3042 $x3715) (not MW_S1_V1) (or (not MW_S1_V3) W_S1_V3) (not MW_S1_V2) (or (not MW_S1_V5) W_S1_V5) (or (not MW_S1_V6) W_S1_V6) (not MW_S2_V1) (not MW_S2_V3) (not MW_S2_V2) (or (not MW_S2_V4) W_S2_V4) (or (not MW_S2_V6) W_S2_V6))))
 (or (not $x4869) (not $x2627) $x2500))))))))))))))))))))))))))))))))))))))))))))))))))))))))))))))))))))))))))))))))))))))))))))))))))))))))))))))))))
 )
 )
 )
 )
 )
 )
 )
 )
 )
 )
 )
 )
 )
 )
 )
 )
 )
 )
 )
 )
 )
 )
 )
 )
 )
 )
 )
 )
 )
 )
 )
 )
 )
 )
 )
 )
 )
 )
 )
 )
 )
 )
 )
 )
 )
 )
 )
 )
 )
 )
 )
 )
 )
 )
 )
 )
 )
 )
 )
 )
 )
 )
 )
 )
 )
 )
 )
 ))
 (let (($x2427 (not R_E1_V5)))
 (let (($x5858 (or R_S2_V5 (and W_S2_V4 R_S2_V4) (and W_S2_V6 R_S2_V6))))
 (let (($x602 (= DISJ_W_S2_R_S2 (not $x5858))))
 (let (($x1103 (or R_S1_V5 (and W_S2_V4 R_S1_V4) (and W_S2_V6 R_S1_V6))))
 (let (($x5060 (= DISJ_W_S2_R_S1 (not $x1103))))
 (let (($x215 (= DISJ_W_S1_W_S2 (not (or W_S1_V5 W_S2_V4 (and W_S1_V6 W_S2_V6))))))
 (let (($x5732 (not (and W_S1_V3 R_E1_V3))))
 (let (($x4871 (not (or (and W_S1_V5 R_S2_V5) R_S2_V4 (and W_S1_V6 R_S2_V6)))))
 (let (($x553 (= DISJ_W_S1_R_S2 $x4871)))
 (let (($x2619 (and W_S1_V6 R_S1_V6)))
 (let (($x2238 (and W_S1_V5 R_S1_V5)))
 (let (($x174 (and W_S1_V3 R_S1_V3)))
 (let (($x2646 (= DISJ_W_S1_R_S1 (not (or $x174 $x2238 R_S1_V4 $x2619)))))
 (let (($x1424 (not W_S2_V2)))
 (let (($x2705 (not W_S2_V3)))
 (let (($x3849 (not W_S2_V1)))
 (let (($x5715 (not W_S1_V2)))
 (let (($x5689 (not W_S1_V1)))
 (let (($x967 (not R_E1_V1)))
 (let (($x4248 (not R_S2_V3)))
 (and DISJ_W_S1_R_E1 DISJ_W_S2_R_E1 $x4248 $x967 $x5689 $x5715 $x3849 $x2705 $x1424 W_S1_V4 W_S2_V5 $x2646 $x553 $x5732 $x215 $x5060 $x602 $x2427 $x2691 $x4604 $x342 $x1411))))))))))))))))))))))))))
(check-sat)
